SCEL1_1_1_1_0_0_0/2
1.00000000
                       2.88886266       0.00000000       0.00000000
                       1.44443133       2.50182845       0.00000000
                       1.44443133       0.83394282       5.28116191
Co Na O
1 2 2 
Direct
               0.5840407    0.5840407    0.2478780 Co
               0.4173740    0.4173740    0.7478780 Va Na
               0.7507073    0.7507073    0.7478780 Va Na
               0.9797663    0.9797663    0.0607011 O
               0.1883150    0.1883150    0.4350549 O
