SCEL4_4_1_1_0_3_1/3
1.00000000
                       4.33329398       2.50182845       0.00000000
                      -1.44443133       0.83394282       5.28116191
                       2.88886266      -5.00365690       0.00000000
Co Na O 
4 2 8 
Direct
               0.7079797    0.2478780    0.0619695 Co
               1.2079797    0.2478780    0.3119695 Co
               0.7079797    0.2478780    0.5619695 Co
               1.2079797    0.2478780    0.8119695 Co
               0.7913130    0.7478780    0.1869695 Na
               1.1246463    0.7478780    0.6869695 Na
               0.9058425    0.4350549    0.8587637 O
               0.4058425    0.4350549    0.6087637 O
               0.9058425    0.4350549    0.3587637 O
               0.4058425    0.4350549    0.1087637 O
               1.5101168    0.0607011    0.7651753 O
               1.0101168    0.0607011    0.5151753 O
               1.5101168    0.0607011    0.2651753 O
               1.0101168    0.0607011    0.0151753 O

