Supercell of SCEL4_4_1_1_0_3_1/3
1.00000000
                       4.33329398       2.50182845       0.00000000
                      -2.88886266       1.66788564      10.56232382
                       2.88886266      -5.00365690       0.00000000
Co Na O 
8 4 16 
Direct
               0.7079797    0.1239390    0.0619695 Co
               0.7079797    0.6239390    0.0619695 Co
               0.2079797    0.1239390    0.3119695 Co
               0.2079797    0.6239390    0.3119695 Co
               0.7079797    0.1239390    0.5619695 Co
               0.7079797    0.6239390    0.5619695 Co
               0.2079797    0.1239390    0.8119695 Co
               0.2079797    0.6239390    0.8119695 Co
               0.7913130    0.3739390    0.1869695 Na
               0.7913130    0.8739390    0.1869695 Na
               0.1246463    0.3739390    0.6869695 Na
               0.1246463    0.8739390    0.6869695 Na
               0.9058425    0.2175275    0.8587637 O
               0.9058425    0.7175274    0.8587637 O
               0.4058425    0.2175275    0.6087637 O
               0.4058425    0.7175274    0.6087637 O
               0.9058425    0.2175275    0.3587637 O
               0.9058425    0.7175274    0.3587637 O
               0.4058425    0.2175275    0.1087637 O
               0.4058425    0.7175274    0.1087637 O
               0.5101168    0.0303505    0.7651753 O
               0.5101168    0.5303505    0.7651753 O
               0.0101168    0.0303505    0.5151753 O
               0.0101168    0.5303505    0.5151753 O
               0.5101168    0.0303505    0.2651753 O
               0.5101168    0.5303505    0.2651753 O
               0.0101168    0.0303505    0.0151753 O
               0.0101168    0.5303505    0.0151753 O

